c description: Graph 3-Colorability of graph: 
c generator: CNFgen (0.9.0)
c copyright: (C) 2012-2020 Massimo Lauria <massimo.lauria@uniroma1.it>
c url: https://massimolauria.net/cnfgen
c
p cnf 60 260
1 2 3 0
-1 -2 0
-1 -3 0
-2 -3 0
4 5 6 0
-4 -5 0
-4 -6 0
-5 -6 0
7 8 9 0
-7 -8 0
-7 -9 0
-8 -9 0
10 11 12 0
-10 -11 0
-10 -12 0
-11 -12 0
13 14 15 0
-13 -14 0
-13 -15 0
-14 -15 0
16 17 18 0
-16 -17 0
-16 -18 0
-17 -18 0
19 20 21 0
-19 -20 0
-19 -21 0
-20 -21 0
22 23 24 0
-22 -23 0
-22 -24 0
-23 -24 0
25 26 27 0
-25 -26 0
-25 -27 0
-26 -27 0
28 29 30 0
-28 -29 0
-28 -30 0
-29 -30 0
31 32 33 0
-31 -32 0
-31 -33 0
-32 -33 0
34 35 36 0
-34 -35 0
-34 -36 0
-35 -36 0
37 38 39 0
-37 -38 0
-37 -39 0
-38 -39 0
40 41 42 0
-40 -41 0
-40 -42 0
-41 -42 0
43 44 45 0
-43 -44 0
-43 -45 0
-44 -45 0
46 47 48 0
-46 -47 0
-46 -48 0
-47 -48 0
49 50 51 0
-49 -50 0
-49 -51 0
-50 -51 0
52 53 54 0
-52 -53 0
-52 -54 0
-53 -54 0
55 56 57 0
-55 -56 0
-55 -57 0
-56 -57 0
58 59 60 0
-58 -59 0
-58 -60 0
-59 -60 0
-1 -16 0
-2 -17 0
-3 -18 0
-1 -25 0
-2 -26 0
-3 -27 0
-1 -31 0
-2 -32 0
-3 -33 0
-1 -40 0
-2 -41 0
-3 -42 0
-1 -55 0
-2 -56 0
-3 -57 0
-4 -10 0
-5 -11 0
-6 -12 0
-4 -13 0
-5 -14 0
-6 -15 0
-4 -16 0
-5 -17 0
-6 -18 0
-4 -28 0
-5 -29 0
-6 -30 0
-4 -31 0
-5 -32 0
-6 -33 0
-4 -43 0
-5 -44 0
-6 -45 0
-4 -52 0
-5 -53 0
-6 -54 0
-4 -55 0
-5 -56 0
-6 -57 0
-7 -10 0
-8 -11 0
-9 -12 0
-7 -22 0
-8 -23 0
-9 -24 0
-7 -25 0
-8 -26 0
-9 -27 0
-7 -58 0
-8 -59 0
-9 -60 0
-10 -16 0
-11 -17 0
-12 -18 0
-10 -22 0
-11 -23 0
-12 -24 0
-10 -31 0
-11 -32 0
-12 -33 0
-10 -34 0
-11 -35 0
-12 -36 0
-10 -43 0
-11 -44 0
-12 -45 0
-13 -34 0
-14 -35 0
-15 -36 0
-13 -40 0
-14 -41 0
-15 -42 0
-13 -43 0
-14 -44 0
-15 -45 0
-16 -22 0
-17 -23 0
-18 -24 0
-16 -37 0
-17 -38 0
-18 -39 0
-16 -49 0
-17 -50 0
-18 -51 0
-19 -40 0
-20 -41 0
-21 -42 0
-19 -43 0
-20 -44 0
-21 -45 0
-19 -49 0
-20 -50 0
-21 -51 0
-19 -58 0
-20 -59 0
-21 -60 0
-22 -31 0
-23 -32 0
-24 -33 0
-22 -49 0
-23 -50 0
-24 -51 0
-22 -55 0
-23 -56 0
-24 -57 0
-25 -28 0
-26 -29 0
-27 -30 0
-25 -31 0
-26 -32 0
-27 -33 0
-25 -34 0
-26 -35 0
-27 -36 0
-25 -40 0
-26 -41 0
-27 -42 0
-25 -49 0
-26 -50 0
-27 -51 0
-25 -52 0
-26 -53 0
-27 -54 0
-25 -58 0
-26 -59 0
-27 -60 0
-28 -46 0
-29 -47 0
-30 -48 0
-28 -49 0
-29 -50 0
-30 -51 0
-28 -55 0
-29 -56 0
-30 -57 0
-31 -52 0
-32 -53 0
-33 -54 0
-34 -37 0
-35 -38 0
-36 -39 0
-34 -43 0
-35 -44 0
-36 -45 0
-37 -55 0
-38 -56 0
-39 -57 0
-40 -46 0
-41 -47 0
-42 -48 0
-40 -49 0
-41 -50 0
-42 -51 0
-40 -52 0
-41 -53 0
-42 -54 0
-40 -55 0
-41 -56 0
-42 -57 0
-40 -58 0
-41 -59 0
-42 -60 0
-43 -55 0
-44 -56 0
-45 -57 0
-43 -58 0
-44 -59 0
-45 -60 0
-46 -58 0
-47 -59 0
-48 -60 0
-49 -52 0
-50 -53 0
-51 -54 0
-49 -55 0
-50 -56 0
-51 -57 0
-49 -58 0
-50 -59 0
-51 -60 0